384 410 411 412 356 357 355 354 353 352 351 415 416 414 413 417 418 419 420 421 422 423 424 425 426 427 428 429 431 430 432 433 434 435 436 438 437 3 2 1 4 0 5 573 572 6 7 8 9 10 11 14 15 16 17 18 19 20 13 12 23 21 24 25 26 27 28 29 22 31 30 32 33 34 35 36 37 38 40 41 39 42 43 44 45 46 47 48 49 54 52 50 51 84 53 55 56 83 82 57 58 59 81 80 79 62 61 60 63 64 76 78 77 75 74 73 72 71 65 66 67 68 70 69 124 125 138 137 139 140 141 144 143 142 151 150 149 152 148 147 146 145 158 136 135 134 133 132 131 130 129 128 127 126 116 115 114 112 113 161 160 154 155 156 159 157 153 165 164 166 167 163 162 168 170 171 169 180 181 179 182 186 185 183 184 197 198 199 200 201 202 204 203 208 207 206 205 196 195 194 209 210 211 212 213 214 215 216 217 223 224 222 221 220 218 219 193 192 191 190 226 225 189 227 228 229 230 231 533 532 531 489 488 534 487 535 536 537 539 538 540 188 187 178 177 176 175 172 174 173 108 109 111 110 107 542 541 543 544 545 546 547 103 104 105 106 117 123 122 121 120 119 118 95 96 97 94 93 90 89 88 87 86 85 92 91 555 556 557 552 553 554 98 99 100 102 101 551 550 559 558 560 561 562 549 548 564 563 565 566 567 568 569 570 474 473 472 471 495 494 524 493 482 475 476 477 478 479 480 481 483 484 485 486 490 491 492 525 526 523 521 522 527 528 529 530 233 232 234 235 236 238 239 240 237 509 510 511 512 513 514 515 516 517 520 518 519 498 497 496 470 469 468 571 467 466 465 464 463 462 461 460 459 458 457 456 455 454 439 443 444 445 442 446 447 448 449 450 441 440 453 452 499 500 501 502 503 504 505 308 309 310 311 451 312 313 316 314 315 374 375 376 377 378 379 380 381 390 392 391 393 394 395 396 373 322 323 372 371 397 398 370 369 368 365 367 366 329 328 327 326 325 324 321 320 319 317 318 305 306 304 303 307 506 507 508 302 301 300 241 242 243 244 245 246 247 248 249 250 251 252 254 253 255 256 257 258 259 260 261 262 263 264 266 265 299 298 297 296 295 294 293 270 269 268 267 271 272 273 274 275 292 291 290 289 288 276 277 278 279 282 281 280 287 286 285 284 283 334 335 336 337 338 339 333 332 331 330 340 341 342 343 344 345 346 364 363 362 361 348 347 350 349 358 359 360 401 402 403 400 399 404 405 406 407 408 409 385 387 388 389 386 382 383